c Reduced graph for GEOM110_3 generated by Cyril Grelier
p edge 102 584
e 1 2
e 1 6
e 1 10
e 1 13
e 1 17
e 1 19
e 1 20
e 1 28
e 1 36
e 1 46
e 1 48
e 1 61
e 1 64
e 1 71
e 1 72
e 1 83
e 1 98
e 1 100
e 1 101
e 2 6
e 2 10
e 2 13
e 2 17
e 2 19
e 2 20
e 2 22
e 2 28
e 2 36
e 2 46
e 2 64
e 2 71
e 2 72
e 2 83
e 2 98
e 2 100
e 2 101
e 3 5
e 3 8
e 3 18
e 3 21
e 3 23
e 3 27
e 3 37
e 3 44
e 3 49
e 3 57
e 3 58
e 3 59
e 3 79
e 3 81
e 3 91
e 4 12
e 4 18
e 4 25
e 4 41
e 4 43
e 4 44
e 4 56
e 4 58
e 4 59
e 4 62
e 4 75
e 4 78
e 4 79
e 4 96
e 5 21
e 5 23
e 5 26
e 5 37
e 5 44
e 5 49
e 5 50
e 5 58
e 5 68
e 5 70
e 5 81
e 5 87
e 5 91
e 6 7
e 6 17
e 6 19
e 6 30
e 6 31
e 6 35
e 6 36
e 6 46
e 6 48
e 6 61
e 6 71
e 6 93
e 7 8
e 7 27
e 7 30
e 7 31
e 7 35
e 7 47
e 7 57
e 7 71
e 7 80
e 7 81
e 7 91
e 7 93
e 8 23
e 8 27
e 8 30
e 8 31
e 8 35
e 8 57
e 8 59
e 8 80
e 8 81
e 8 91
e 8 93
e 9 11
e 9 14
e 9 15
e 9 45
e 9 52
e 9 54
e 9 67
e 9 76
e 9 77
e 9 94
e 9 99
e 9 102
e 10 13
e 10 36
e 10 48
e 10 61
e 10 64
e 10 74
e 10 83
e 10 85
e 10 98
e 10 101
e 11 14
e 11 24
e 11 32
e 11 45
e 11 53
e 11 54
e 11 67
e 11 76
e 11 94
e 11 95
e 11 102
e 12 25
e 12 41
e 12 43
e 12 44
e 12 50
e 12 58
e 12 62
e 12 75
e 12 78
e 12 96
e 13 36
e 13 48
e 13 61
e 13 64
e 13 74
e 13 83
e 13 98
e 13 101
e 14 15
e 14 45
e 14 52
e 14 54
e 14 67
e 14 77
e 14 94
e 14 99
e 14 102
e 15 45
e 15 54
e 15 61
e 15 77
e 15 85
e 15 94
e 16 29
e 16 34
e 16 51
e 16 73
e 16 92
e 17 19
e 17 20
e 17 22
e 17 28
e 17 33
e 17 40
e 17 46
e 17 71
e 17 72
e 17 83
e 17 98
e 17 100
e 18 27
e 18 35
e 18 47
e 18 56
e 18 57
e 18 58
e 18 59
e 18 60
e 18 66
e 18 79
e 18 80
e 18 86
e 18 91
e 19 20
e 19 22
e 19 35
e 19 40
e 19 46
e 19 47
e 19 71
e 19 72
e 19 98
e 19 100
e 20 22
e 20 28
e 20 33
e 20 40
e 20 42
e 20 46
e 20 71
e 20 72
e 20 100
e 21 23
e 21 26
e 21 37
e 21 44
e 21 49
e 21 50
e 21 58
e 21 68
e 21 70
e 21 87
e 21 91
e 22 28
e 22 33
e 22 40
e 22 42
e 22 46
e 22 72
e 22 100
e 23 27
e 23 37
e 23 49
e 23 52
e 23 81
e 23 87
e 23 91
e 24 32
e 24 45
e 24 53
e 24 55
e 24 76
e 24 88
e 24 89
e 24 90
e 24 95
e 24 97
e 25 41
e 25 43
e 25 62
e 25 75
e 25 78
e 25 96
e 26 37
e 26 44
e 26 50
e 26 68
e 26 70
e 27 31
e 27 35
e 27 47
e 27 57
e 27 58
e 27 59
e 27 60
e 27 80
e 27 81
e 27 91
e 27 93
e 28 33
e 28 46
e 28 64
e 28 83
e 28 98
e 28 100
e 28 101
e 29 34
e 29 38
e 29 39
e 29 51
e 29 63
e 29 65
e 29 73
e 29 82
e 29 84
e 29 92
e 29 99
e 30 31
e 30 35
e 30 36
e 30 48
e 30 61
e 30 71
e 30 77
e 30 93
e 31 35
e 31 57
e 31 61
e 31 80
e 31 81
e 31 93
e 32 45
e 32 53
e 32 55
e 32 88
e 32 90
e 32 95
e 32 97
e 33 40
e 33 46
e 33 72
e 33 100
e 34 51
e 34 73
e 34 92
e 35 47
e 35 57
e 35 60
e 35 66
e 35 71
e 35 72
e 35 80
e 35 86
e 35 93
e 36 48
e 36 61
e 36 64
e 36 74
e 36 83
e 36 85
e 36 98
e 36 101
e 37 49
e 37 50
e 37 52
e 37 68
e 37 81
e 37 87
e 37 91
e 38 39
e 38 51
e 38 63
e 38 65
e 38 67
e 38 73
e 38 82
e 38 84
e 38 92
e 38 99
e 38 102
e 39 52
e 39 63
e 39 65
e 39 73
e 39 82
e 39 84
e 39 87
e 39 92
e 39 99
e 40 42
e 40 46
e 40 69
e 40 72
e 40 100
e 41 43
e 41 44
e 41 62
e 41 75
e 41 78
e 41 96
e 42 47
e 42 60
e 42 66
e 42 69
e 42 72
e 42 86
e 43 62
e 43 75
e 43 78
e 43 96
e 44 50
e 44 58
e 44 59
e 44 62
e 44 70
e 44 75
e 44 79
e 44 91
e 45 53
e 45 54
e 45 67
e 45 76
e 45 77
e 45 88
e 45 94
e 45 95
e 45 102
e 46 71
e 46 72
e 46 98
e 46 100
e 47 57
e 47 60
e 47 66
e 47 69
e 47 71
e 47 72
e 47 80
e 47 86
e 48 61
e 48 64
e 48 74
e 48 83
e 48 85
e 48 98
e 48 101
e 49 50
e 49 52
e 49 58
e 49 68
e 49 81
e 49 87
e 49 91
e 50 58
e 50 62
e 50 68
e 50 70
e 51 63
e 51 65
e 51 73
e 51 82
e 51 84
e 51 92
e 52 63
e 52 82
e 52 87
e 52 99
e 53 55
e 53 76
e 53 88
e 53 90
e 53 95
e 53 97
e 54 77
e 54 85
e 54 89
e 54 94
e 55 88
e 55 89
e 55 90
e 55 95
e 55 97
e 56 59
e 56 66
e 56 79
e 56 96
e 57 59
e 57 60
e 57 66
e 57 80
e 57 81
e 57 86
e 57 91
e 57 93
e 58 59
e 58 62
e 58 79
e 58 81
e 58 91
e 59 60
e 59 79
e 59 80
e 59 81
e 59 91
e 60 66
e 60 69
e 60 71
e 60 72
e 60 80
e 60 86
e 61 74
e 61 77
e 61 85
e 61 101
e 62 70
e 62 75
e 62 78
e 62 96
e 63 65
e 63 73
e 63 82
e 63 84
e 63 87
e 63 92
e 63 99
e 64 74
e 64 83
e 64 98
e 64 101
e 65 73
e 65 82
e 65 84
e 65 92
e 65 99
e 66 69
e 66 80
e 66 86
e 67 76
e 67 84
e 67 99
e 67 102
e 68 82
e 68 87
e 69 72
e 69 86
e 71 72
e 71 80
e 71 86
e 71 93
e 71 100
e 72 86
e 72 100
e 73 82
e 73 84
e 73 92
e 73 99
e 74 83
e 74 85
e 74 89
e 74 98
e 74 101
e 75 78
e 75 96
e 76 94
e 76 95
e 76 102
e 77 85
e 77 94
e 78 96
e 80 81
e 80 86
e 80 93
e 81 91
e 81 93
e 82 84
e 82 87
e 82 92
e 82 99
e 83 98
e 83 101
e 84 92
e 84 99
e 84 102
e 85 89
e 85 94
e 85 97
e 88 89
e 88 90
e 88 95
e 88 97
e 89 90
e 89 97
e 90 95
e 90 97
e 94 95
e 94 102
e 98 101
e 99 102
